50	50290

275 276
386 387
129 129
835 837
900 900
664 666
230 231
850 852
456 456
893 894
35 36
227 228
641 642
162 162
431 432
321 321
682 684
113 114
390 390
565 567
904 906
696 696
671 672
819 819
974 975
231 231
586 588
227 228
270 270
506 507
612 612
842 843
95 96
254 255
496 498
62 63
915 915
221 222
371 372
171 171
922 924
839 840
373 375
216 216
855 855
662 663
485 486
602 603
745 747
338 339
